experiment/data/hgs-res/Vrp-Set-CMT-n200/Vrp-Set-CMT-n200-hgs/0.hgs1.vrp
NAME : 0
COMMENT : CVRP Instance
TYPE : CVRP
DIMENSION : 200
EDGE_WEIGHT_TYPE : EUC_2D
CAPACITY : 200
NODE_COORD_SECTION
1	35.0	35.0
2	22.0	22.0
3	36.0	26.0
4	21.0	45.0
5	45.0	35.0
6	55.0	20.0
7	33.0	34.0
8	50.0	50.0
9	55.0	45.0
10	26.0	59.0
11	40.0	66.0
12	55.0	65.0
13	35.0	51.0
14	62.0	35.0
15	62.0	57.0
16	62.0	24.0
17	21.0	36.0
18	33.0	44.0
19	9.0	56.0
20	62.0	48.0
21	66.0	14.0
22	44.0	13.0
23	26.0	13.0
24	11.0	28.0
25	7.0	43.0
26	17.0	64.0
27	41.0	46.0
28	55.0	34.0
29	35.0	16.0
30	52.0	26.0
31	43.0	26.0
32	31.0	76.0
33	22.0	53.0
34	26.0	29.0
35	50.0	40.0
36	55.0	50.0
37	54.0	10.0
38	60.0	15.0
39	47.0	66.0
40	30.0	60.0
41	30.0	50.0
42	12.0	17.0
43	15.0	14.0
44	16.0	19.0
45	21.0	48.0
46	50.0	30.0
47	51.0	42.0
48	50.0	15.0
49	48.0	21.0
50	12.0	38.0
51	37.0	52.0
52	49.0	49.0
53	52.0	64.0
54	20.0	26.0
55	40.0	30.0
56	21.0	47.0
57	17.0	63.0
58	31.0	62.0
59	52.0	33.0
60	51.0	21.0
61	42.0	41.0
62	31.0	32.0
63	5.0	25.0
64	12.0	42.0
65	36.0	16.0
66	52.0	41.0
67	27.0	23.0
68	17.0	33.0
69	13.0	13.0
70	57.0	58.0
71	62.0	42.0
72	42.0	57.0
73	16.0	57.0
74	8.0	52.0
75	7.0	38.0
76	27.0	68.0
77	30.0	48.0
78	43.0	67.0
79	58.0	48.0
80	58.0	27.0
81	37.0	69.0
82	38.0	46.0
83	46.0	10.0
84	61.0	33.0
85	62.0	63.0
86	63.0	69.0
87	32.0	22.0
88	45.0	35.0
89	59.0	15.0
90	5.0	6.0
91	10.0	17.0
92	21.0	10.0
93	5.0	64.0
94	30.0	15.0
95	39.0	10.0
96	32.0	39.0
97	25.0	32.0
98	25.0	55.0
99	48.0	28.0
100	56.0	37.0
101	41.0	49.0
102	35.0	17.0
103	55.0	45.0
104	55.0	20.0
105	15.0	30.0
106	25.0	30.0
107	20.0	50.0
108	10.0	43.0
109	55.0	60.0
110	30.0	60.0
111	20.0	65.0
112	50.0	35.0
113	30.0	25.0
114	15.0	10.0
115	30.0	5.0
116	10.0	20.0
117	5.0	30.0
118	20.0	40.0
119	15.0	60.0
120	45.0	65.0
121	45.0	20.0
122	45.0	10.0
123	55.0	5.0
124	65.0	35.0
125	65.0	20.0
126	45.0	30.0
127	35.0	40.0
128	41.0	37.0
129	64.0	42.0
130	40.0	60.0
131	31.0	52.0
132	35.0	69.0
133	53.0	52.0
134	65.0	55.0
135	63.0	65.0
136	2.0	60.0
137	20.0	20.0
138	5.0	5.0
139	60.0	12.0
140	40.0	25.0
141	42.0	7.0
142	24.0	12.0
143	23.0	3.0
144	11.0	14.0
145	6.0	38.0
146	2.0	48.0
147	8.0	56.0
148	13.0	52.0
149	6.0	68.0
150	47.0	47.0
151	49.0	58.0
152	27.0	43.0
153	37.0	31.0
154	57.0	29.0
155	63.0	23.0
156	53.0	12.0
157	32.0	12.0
158	36.0	26.0
159	21.0	24.0
160	17.0	34.0
161	12.0	24.0
162	24.0	58.0
163	27.0	69.0
164	15.0	77.0
165	62.0	77.0
166	49.0	73.0
167	67.0	5.0
168	56.0	39.0
169	37.0	47.0
170	37.0	56.0
171	57.0	68.0
172	47.0	16.0
173	44.0	17.0
174	46.0	13.0
175	49.0	11.0
176	49.0	42.0
177	53.0	43.0
178	61.0	52.0
179	57.0	48.0
180	56.0	37.0
181	55.0	54.0
182	15.0	47.0
183	14.0	37.0
184	11.0	31.0
185	16.0	22.0
186	4.0	18.0
187	28.0	18.0
188	26.0	52.0
189	26.0	35.0
190	31.0	67.0
191	15.0	19.0
192	22.0	22.0
193	18.0	24.0
194	26.0	27.0
195	25.0	24.0
196	22.0	27.0
197	25.0	21.0
198	19.0	21.0
199	20.0	26.0
200	18.0	18.0
DEMAND_SECTION
1	0
2	18
3	26
4	11
5	30
6	21
7	19
8	15
9	16
10	29
11	26
12	37
13	16
14	12
15	31
16	8
17	19
18	20
19	13
20	15
21	22
22	28
23	12
24	6
25	27
26	14
27	18
28	17
29	29
30	13
31	22
32	25
33	28
34	27
35	19
36	10
37	12
38	14
39	24
40	16
41	33
42	15
43	11
44	18
45	17
46	21
47	27
48	19
49	20
50	5
51	7
52	30
53	16
54	9
55	21
56	15
57	19
58	23
59	11
60	5
61	19
62	29
63	23
64	21
65	10
66	15
67	3
68	41
69	9
70	28
71	8
72	8
73	16
74	10
75	28
76	7
77	15
78	14
79	6
80	19
81	11
82	12
83	23
84	26
85	17
86	6
87	9
88	15
89	14
90	7
91	27
92	13
93	11
94	16
95	10
96	5
97	25
98	17
99	18
100	10
101	10
102	7
103	13
104	19
105	26
106	3
107	5
108	9
109	16
110	16
111	12
112	19
113	23
114	20
115	8
116	19
117	2
118	12
119	17
120	9
121	11
122	18
123	29
124	3
125	6
126	17
127	16
128	16
129	9
130	21
131	27
132	23
133	11
134	14
135	8
136	5
137	8
138	16
139	31
140	9
141	5
142	5
143	7
144	18
145	16
146	1
147	27
148	36
149	30
150	13
151	10
152	9
153	14
154	18
155	2
156	6
157	7
158	18
159	28
160	3
161	13
162	19
163	10
164	9
165	20
166	25
167	25
168	36
169	6
170	5
171	15
172	25
173	9
174	8
175	18
176	13
177	14
178	3
179	23
180	6
181	26
182	16
183	11
184	7
185	41
186	35
187	26
188	9
189	15
190	3
191	1
192	2
193	22
194	27
195	20
196	11
197	12
198	10
199	9
200	17
DEPOT_SECTION
1
-1
EOF
