experiment/data/hgs-res/Vrp-Set-CMT-n200/Vrp-Set-CMT-n200-hgs/0.hgs1.tour
Route #1: 6
Route #2: 105 195 53 198 192 184 190 43 199 136 197 191 1 158
Route #3: 86 93 156 114 142 113 137 89 185 62 116 183 159 16 188
Route #4: 104 23 160 115 90 41 143 68 42 91 141 22 186
Route #5: 152 157 2 112 66 196 194 193 33 61
Route #6: 101 28 64 94 140 121 82 174 173 21 172 120 54
Route #7: 153 79 15 154 124 20 166 122 36 155 47 171 139
Route #8: 30 48 59 138 37 88 103 5 29 98 125
Route #9: 4 87 111 58 27 179 99 167 65 46 175
Route #10: 45 83 13 123 128 70 19 78 178 35 8 102 176 34
Route #11: 51 7 132 180 69 108 11 52 150 100
Route #12: 149 177 133 14 84 134 85 164 170 165 38 119 71 50
Route #13: 126 17 76 40 130 12 168 81 26 60 127
Route #14: 109 39 57 189 75 162 31 131 80 10 77 129 169
Route #15: 151 3 55 44 106 147 32 161 9 97 187 95
Route #16: 181 145 73 18 146 135 92 148 163 110 25 56 118 72
Route #17: 96 67 182 49 74 144 24 107 63 117
Cost 1291.45
